000 000 000 000 000 -99 000 000 -99 -99 -99 -99 -99 000 -99 -99 000 000 -99 000 000 000 -99 -99 000 000 000 000 -99 -99 -99
000 000 000 000 000 000 000 000 -99 -99 -99 -99 -99 -99 000 000 000 000 -99 000 000 000 -99 -99 000 000 000 000 -99 -99 -99
-99 000 000 000 000 000 000 000 000 -99 -99 -99 -99 -99 000 000 000 000 -99 -99 000 000 000 -99 000 000 000 000 000 -99 -99
000 000 000 000 000 000 -99 000 000 000 -99 000 000 -99 000 000 000 -99 -99 -99 000 000 000 000 -99 000 000 000 000 -99 -99
000 000 000 000 000 000 000 000 000 000 -99 000 000 -99 -99 -99 000 000 -99 -99 000 000 000 000 000 -99 000 000 000 -99 -99
000 000 000 000 000 000 000 000 000 000 -99 -99 -99 -99 -99 -99 -99 000 000 -99 -99 000 000 000 000 -99 -99 -99 -99 -99 -99
000 000 000 000 000 000 000 -99 000 000 000 000 -99 -99 -99 -99 -99 -99 000 000 -99 -99 000 000 000 -99 -99 -99 -99 -99 -99
000 000 000 000 -99 -99 -99 -99 000 000 000 000 -99 -99 -99 -99 -99 -99 000 000 000 000 000 000 000 -99 -99 -99 -99 -99 -99
000 -99 000 000 -99 -99 -99 -99 -99 000 000 -99 000 000 000 000 -99 000 000 000 000 000 000 000 000 -99 -99 -99 -99 000 -99
-99 -99 000 -99 -99 -99 -99 -99 -99 -99 -99 -99 000 000 000 000 000 000 000 000 -99 -99 000 -99 000 000 -99 -99 000 000 -99
-99 -99 -99 -99 -99 -99 -99 -99 -99 -99 -99 -99 000 000 000 000 000 000 000 -99 -99 -99 -99 -99 000 000 -99 -99 000 000 000
-99 -99 -99 -99 -99 -99 000 -99 000 000 -99 -99 000 -99 000 000 000 000 000 -99 -99 -99 -99 000 000 000 -99 -99 000 000 000
-99 -99 -99 -99 -99 000 000 000 -99 000 -99 000 000 000 000 000 -99 000 -99 -99 -99 -99 -99 000 000 000 000 -99 000 000 -99
000 -99 -99 -99 000 000 000 000 000 000 -99 -99 000 -99 -99 -99 000 -99 000 000 -99 -99 000 000 000 000 000 -99 000 000 -99
-99 -99 -99 -99 000 000 000 -99 -99 -99 -99 000 000 000 -99 -99 000 000 000 000 000 -99 000 000 000 000 000 -99 000 000 000
-99 -99 -99 -99 000 000 000 000 000 -99 -99 -99 -99 -99 000 000 000 000 000 000 -99 -99 000 000 000 000 000 000 000 000 000
-99 -99 -99 -99 -99 000 000 000 000 -99 -99 -99 -99 -99 000 000 000 000 000 -99 -99 -99 -99 000 000 000 000 000 000 000 000
000 -99 -99 -99 -99 -99 -99 000 000 000 -99 -99 -99 000 -99 000 000 000 000 -99 -99 -99 -99 -99 -99 -99 -99 -99 000 000 000
000 000 000 -99 -99 -99 -99 000 000 000 -99 -99 -99 000 -99 000 000 000 000 -99 000 000 -99 -99 000 000 000 -99 -99 000 -99
-99 000 000 -99 -99 -99 -99 000 000 000 -99 -99 -99 -99 -99 000 000 000 000 000 000 000 000 -99 000 000 000 -99 -99 -99 -99
000 000 000 000 000 -99 -99 000 000 -99 000 000 -99 -99 -99 000 000 000 000 000 -99 000 000 -99 -99 -99 000 -99 -99 -99 -99
000 000 000 000 000 000 -99 000 000 000 000 000 -99 -99 000 000 000 000 000 000 000 000 000 -99 -99 -99 000 -99 -99 -99 -99
000 000 000 000 000 000 -99 000 000 000 000 -99 000 000 000 000 000 000 000 000 000 000 000 -99 -99 -99 -99 -99 -99 -99 -99
000 000 000 000 -99 000 -99 000 000 000 -99 -99 000 000 000 000 000 000 000 000 000 000 000 -99 -99 -99 -99 -99 -99 -99 -99
000 000 000 000 000 000 000 000 000 000 000 -99 000 000 -99 000 000 000 000 000 000 000 000 -99 -99 -99 -99 -99 -99 -99 000
000 000 -99 000 000 000 000 000 000 000 000 -99 -99 000 000 000 000 000 000 000 -99 -99 -99 -99 -99 -99 -99 -99 -99 -99 000
000 000 000 000 000 000 000 000 000 000 000 -99 -99 000 000 000 000 000 000 000 -99 000 -99 -99 -99 -99 -99 -99 -99 -99 000
000 000 000 000 000 000 000 000 000 000 000 -99 -99 000 000 000 000 000 000 -99 000 000 -99 -99 -99 -99 -99 -99 -99 -99 000
000 000 000 000 000 000 000 000 000 000 000 -99 -99 000 000 000 000 000 000 000 000 000 -99 -99 -99 -99 -99 -99 -99 -99 -99
000 000 000 000 000 000 000 000 000 000 000 -99 -99 000 000 000 000 000 000 000 000 000 -99 000 000 -99 -99 -99 -99 -99 -99
000 000 000 000 000 000 000 000 000 000 000 -99 000 000 000 000 000 000 000 000 -99 000 -99 000 000 -99 -99 -99 -99 -99 -99
000 000 000 000 000 000 000 000 000 -99 -99 -99 000 000 -99 000 000 000 000 -99 000 000 000 000 000 -99 -99 -99 000 -99 -99
000 000 000 000 000 000 000 000 000 -99 -99 -99 000 -99 -99 -99 000 000 000 -99 -99 000 000 000 000 -99 -99 000 000 -99 -99
000 000 000 000 000 000 000 000 000 000 -99 -99 000 000 -99 -99 000 000 000 -99 000 000 000 -99 000 000 -99 000 000 -99 -99
-99 000 000 000 000 000 000 000 000 000 000 000 000 000 000 000 000 -99 -99 000 000 000 000 000 000 000 000 000 000 -99 -99
000 000 000 000 000 000 000 000 000 000 000 000 000 000 000 000 000 -99 000 000 000 000 000 000 000 000 000 000 000 -99 -99
000 000 000 000 000 -99 -99 000 000 000 000 000 000 000 000 000 000 -99 000 000 000 000 000 000 000 000 000 000 000 -99 -99
000 -99 -99 000 000 000 -99 000 000 -99 -99 -99 000 000 000 000 000 -99 -99 000 000 000 000 000 000 000 000 -99 -99 -99 -99
000 -99 000 -99 000 000 -99 000 -99 -99 -99 -99 000 000 000 000 000 000 -99 000 000 000 -99 000 000 000 -99 -99 -99 -99 -99
000 -99 000 000 000 -99 -99 -99 -99 -99 -99 -99 000 000 000 000 000 -99 -99 -99 -99 -99 -99 000 -99 -99 -99 -99 -99 -99 -99
000 000 000 000 000 000 000 000 -99 -99 000 000 000 000 000 000 -99 -99 -99 -99 000 -99 -99 000 -99 -99 -99 -99 -99 -99 000
000 000 000 000 000 000 000 000 -99 000 000 000 000 -99 -99 000 -99 -99 -99 000 000 -99 -99 -99 -99 -99 -99 -99 -99 -99 000
000 000 000 000 000 000 000 000 000 000 000 000 000 000 -99 000 000 -99 -99 000 -99 -99 -99 -99 -99 -99 -99 -99 -99 -99 -99
000 000 000 000 000 001 001 000 000 000 000 000 000 000 000 000 000 -99 000 000 000 -99 -99 -99 -99 -99 -99 -99 -99 -99 -99
006 003 001 001 000 001 000 000 000 000 000 000 001 000 000 000 -99 -99 000 000 -99 -99 -99 -99 -99 -99 -99 -99 -99 -99 -99
018 021 009 006 005 002 000 000 000 000 000 006 002 000 000 000 -99 000 000 000 000 -99 -99 000 -99 -99 -99 -99 -99 -99 -99
042 039 029 026 026 009 000 000 000 001 006 024 004 000 000 000 000 000 000 000 -99 -99 000 000 -99 000 000 -99 -99 -99 -99
027 029 029 035 020 011 001 000 000 003 021 021 008 000 000 000 000 000 000 000 000 000 000 -99 -99 000 000 -99 -99 -99 -99
007 009 010 014 013 014 012 002 002 009 019 011 005 000 001 000 000 000 000 -99 000 000 000 -99 -99 000 000 000 -99 -99 -99
000 001 003 003 008 018 012 003 003 015 009 004 000 000 001 000 000 000 000 000 000 000 -99 -99 -99 -99 000 000 -99 -99 -99
000 000 000 002 012 013 005 002 002 005 001 001 000 000 000 000 000 -99 000 000 000 000 -99 -99 -99 000 -99 -99 -99 -99 -99
000 000 000 002 003 002 002 001 000 001 000 000 000 000 000 000 -99 -99 000 000 000 -99 -99 -99 -99 000 -99 -99 -99 -99 -99
000 000 000 001 001 000 000 000 000 000 000 -99 -99 -99 -99 -99 -99 000 000 000 000 -99 -99 -99 -99 -99 -99 -99 -99 -99 -99
000 000 000 000 000 000 000 -99 -99 -99 -99 -99 -99 -99 -99 -99 -99 000 000 000 -99 -99 -99 -99 -99 -99 -99 -99 -99 -99 -99
000 000 000 000 000 -99 -99 -99 -99 -99 -99 -99 -99 -99 -99 -99 -99 -99 -99 -99 -99 -99 -99 -99 -99 -99 -99 -99 -99 -99 -99
